(set-info :smt-lib-version 2.6)
(set-logic QF_UFLRA)
(set-info :source |
MathSat group

|)
(set-info :category "random")
(set-info :status unsat)
(declare-fun x0 () Real)
(declare-fun x1 () Real)
(declare-fun x2 () Real)
(declare-fun x3 () Real)
(declare-fun x4 () Real)
(declare-fun x5 () Real)
(declare-fun x6 () Real)
(declare-fun x7 () Real)
(declare-fun x8 () Real)
(declare-fun x9 () Real)
(declare-fun x10 () Real)
(declare-fun x11 () Real)
(declare-fun x12 () Real)
(declare-fun x13 () Real)
(declare-fun x14 () Real)
(declare-fun x15 () Real)
(declare-fun x16 () Real)
(declare-fun x17 () Real)
(declare-fun x18 () Real)
(declare-fun x19 () Real)
(declare-fun x20 () Real)
(declare-fun x21 () Real)
(declare-fun x22 () Real)
(declare-fun x23 () Real)
(declare-fun x24 () Real)
(declare-fun x25 () Real)
(declare-fun x26 () Real)
(declare-fun x27 () Real)
(declare-fun x28 () Real)
(declare-fun x29 () Real)
(declare-fun f0_1 (Real) Real)
(declare-fun f0_2 (Real Real) Real)
(declare-fun f0_3 (Real Real Real) Real)
(declare-fun f0_4 (Real Real Real Real) Real)
(declare-fun P0 () Bool)
(declare-fun P1 () Bool)
(declare-fun P2 () Bool)
(declare-fun P3 () Bool)
(declare-fun P4 () Bool)
(declare-fun P5 () Bool)
(declare-fun P6 () Bool)
(declare-fun P7 () Bool)
(declare-fun P8 () Bool)
(declare-fun P9 () Bool)
(declare-fun P10 () Bool)
(declare-fun P11 () Bool)
(declare-fun P12 () Bool)
(declare-fun P13 () Bool)
(declare-fun P14 () Bool)
(declare-fun P15 () Bool)
(declare-fun P16 () Bool)
(declare-fun P17 () Bool)
(declare-fun P18 () Bool)
(declare-fun P19 () Bool)
(declare-fun P20 () Bool)
(declare-fun P21 () Bool)
(declare-fun P22 () Bool)
(declare-fun P23 () Bool)
(declare-fun P24 () Bool)
(declare-fun P25 () Bool)
(declare-fun P26 () Bool)
(declare-fun P27 () Bool)
(declare-fun P28 () Bool)
(declare-fun P29 () Bool)
(assert (let ((?v_29 (distinct (+ (- (* 16 x15) (* 9 x19)) (* 21 x21)) 37)) (?v_97 (<= (+ (- (* 10 x21) (* 34 x4)) (* 20 x26)) 30)) (?v_95 (<= (- (- (* 37 x24) (* 13 x28)) (* 17 x28)) 3)) (?v_24 (<= (- (+ (* 40 x25) (* 5 x16)) (* 29 x12)) 0)) (?v_110 (< (+ (- (* 13 x19) (* 26 x20)) (* 15 x12)) 11)) (?v_0 (* 17 x18)) (?v_77 (< (- (- (* 6 x18) (* 41 x16)) (* 15 x13)) 22)) (?v_49 (f0_1 x13))) (let ((?v_116 (distinct (f0_2 x4 x8) ?v_49)) (?v_45 (f0_1 x3))) (let ((?v_108 (distinct x20 ?v_45)) (?v_11 (f0_1 x10)) (?v_65 (f0_1 x27))) (let ((?v_107 (= ?v_11 ?v_65)) (?v_92 (= x10 ?v_45)) (?v_58 (= (f0_2 x9 x13) (f0_2 x3 x7))) (?v_1 (f0_1 x22))) (let ((?v_123 (= x20 ?v_1)) (?v_70 (distinct (f0_2 x15 x21) ?v_11)) (?v_78 (f0_1 x24))) (let ((?v_131 (distinct ?v_78 (f0_2 x28 x7))) (?v_126 (distinct (f0_2 x7 x5) ?v_65)) (?v_50 (distinct (f0_2 x16 x6) x5)) (?v_103 (= (f0_1 x12) x24)) (?v_36 (f0_1 x15))) (let ((?v_16 (= ?v_49 ?v_36)) (?v_32 (distinct (f0_2 x1 x13) ?v_11)) (?v_26 (distinct (f0_1 x9) (f0_2 x18 x8))) (?v_4 (= x18 (f0_2 x17 x12))) (?v_94 (= ?v_78 x27)) (?v_76 (distinct x25 x18)) (?v_87 (= (f0_1 x16) (f0_2 x14 x2))) (?v_27 (= x7 (f0_1 x11))) (?v_2 (= x3 ?v_1)) (?v_135 (distinct x11 x0)) (?v_31 (= (f0_1 x19) ?v_1)) (?v_40 (distinct ?v_36 (f0_1 x14))) (?v_43 (distinct (f0_2 x5 x2) (f0_2 x11 x11))) (?v_12 (distinct (f0_2 x19 x3) (f0_2 x14 x10))) (?v_128 (= ?v_11 (f0_2 x14 x26))) (?v_105 (= (f0_2 x14 x24) x6)) (?v_25 (f0_2 x5 x26))) (let ((?v_55 (distinct ?v_25 (f0_2 x10 x28))) (?v_104 (= (f0_2 x5 x24) ?v_25)) (?v_100 (distinct (f0_1 x29) ?v_36)) (?v_15 (not P29)) (?v_48 (not ?v_12)) (?v_3 (not P9)) (?v_34 (not ?v_16)) (?v_47 (not ?v_2)) (?v_66 (not P20)) (?v_93 (not ?v_126)) (?v_14 (not P12)) (?v_20 (not ?v_43)) (?v_38 (not ?v_92)) (?v_5 (not ?v_128)) (?v_7 (not P24)) (?v_37 (not ?v_4)) (?v_121 (not ?v_135)) (?v_10 (not ?v_58)) (?v_106 (not P1)) (?v_41 (not ?v_105)) (?v_115 (not ?v_70)) (?v_35 (not P7)) (?v_28 (not P13)) (?v_22 (not P4)) (?v_62 (not P28)) (?v_137 (not P5)) (?v_74 (not P10)) (?v_73 (not P25)) (?v_52 (not ?v_97)) (?v_80 (not ?v_27)) (?v_56 (not ?v_77)) (?v_117 (not ?v_29)) (?v_122 (not ?v_31)) (?v_59 (not P17)) (?v_54 (not P26)) (?v_79 (not P22)) (?v_72 (not ?v_108)) (?v_124 (not ?v_24)) (?v_98 (not P18)) (?v_64 (not P6)) (?v_85 (not P23)) (?v_96 (not ?v_76)) (?v_84 (not P11)) (?v_142 (not ?v_26)) (?v_140 (not P2)) (?v_125 (not ?v_87)) (?v_101 (not P3)) (?v_109 (not P27)) (?v_144 (not ?v_32)) (?v_134 (not P8)) (?v_133 (not ?v_95)) (?v_127 (not P19))) (let ((?v_138 (not ?v_100)) (?v_120 (not P15)) (?v_113 (not ?v_103)) (?v_136 (not ?v_104)) (?v_129 (not ?v_107)) (?v_152 (not ?v_40)) (?v_118 (not ?v_110)) (?v_130 (not P0)) (?v_157 (not ?v_94)) (?v_148 (not ?v_116)) (?v_150 (not ?v_123)) (?v_151 (not P16)) (?v_139 (not P21)) (?v_145 (not ?v_131)) (?v_161 (not P14))) (let ((?v_158 (or ?v_148 ?v_37)) (?v_153 (not ?v_50)) (?v_156 (or P7 ?v_38)) (?v_19 (< (- (+ x15 (* 23 x13)) (* 5 x9)) 28))) (let ((?v_61 (not ?v_19)) (?v_30 (< (- (- x12 (* 2 x12)) (* 6 x22)) 22))) (let ((?v_143 (not ?v_30)) (?v_99 (distinct (+ x24 (* 2 x8)) 40)) (?v_82 (< (+ (- 0 (* 2 x23)) (* 14 x25)) 32)) (?v_44 (< (+ (* 8 x24) (* 27 x4) (* 25 x15)) 37)) (?v_112 (< (- (- (* 19 x16) (* 24 x12)) x15) 9))) (let ((?v_68 (not ?v_112)) (?v_83 (not ?v_82)) (?v_114 (or ?v_44 ?v_129)) (?v_159 (or P14 ?v_30)) (?v_149 (not ?v_99)) (?v_146 (<= (+ (* (- 24) x8) (* 20 x20) (* 23 x8)) 32)) (?v_21 (< (- (- (* 26 x16) (* 2 x26)) (* 11 x1)) (- 24)))) (let ((?v_86 (not ?v_21)) (?v_17 (<= (+ (* (- 26) x10) (* 3 x23) (* 32 x23)) (- 26))) (?v_69 (< (+ (- (* (- 39) x15) ?v_0) (* 14 x27)) 36))) (let ((?v_23 (not ?v_69)) (?v_18 (< (+ (- (* (- 17) x0) (* 24 x4)) (* 28 x7)) (- 30))) (?v_81 (<= (+ (- (* 18 x18) ?v_0) (* 6 x17)) (- 26)))) (let ((?v_46 (not ?v_81)) (?v_9 (< (+ (* 8 x16) (* 38 x13) (* 15 x2)) (- 44))) (?v_6 (< (+ (* (- 16) x3) (* 38 x19) (* 10 x10)) 12)) (?v_60 (< (- (+ (* (- 39) x6) (* 9 x22)) (* 28 x16)) (- 23)))) (let ((?v_75 (not ?v_60)) (?v_8 (distinct (- (+ (* (- 27) x7) (* 6 x6)) 0) 37)) (?v_39 (< (+ (* (- 21) x1) (* 7 x25) (* 42 x21)) (- 6)))) (let ((?v_89 (not ?v_39)) (?v_102 (= (- (+ (* 25 x22) (* 25 x26)) (* 18 x19)) (- 40)))) (let ((?v_147 (not ?v_102)) (?v_154 (<= (+ (- 0 (* 42 x2)) (* 21 x2)) (- 13)))) (let ((?v_53 (not ?v_154)) (?v_63 (not ?v_8)) (?v_13 (<= (+ (- (* 21 x0) (* 22 x14)) (* 25 x24)) (- 30))) (?v_42 (< (- (+ (* (- 8) x11) (* 40 x14)) x19) (- 15))) (?v_91 (not ?v_6)) (?v_141 (<= (+ (- (* 12 x29) 0) x24) (- 41)))) (let ((?v_33 (not ?v_141)) (?v_111 (not ?v_17)) (?v_51 (not ?v_18)) (?v_57 (not ?v_9)) (?v_71 (not ?v_13)) (?v_88 (not ?v_42)) (?v_67 (<= (- (- (* (- 20) x7) (* 23 x12)) (* 16 x29)) (- 42)))) (let ((?v_90 (not ?v_67)) (?v_119 (distinct (- (+ (* 41 x26) x2) (* 31 x11)) (- 44)))) (let ((?v_132 (not ?v_119)) (?v_155 (not ?v_146)) (?v_160 (or ?v_9 ?v_16))) (and (and (and (and (and (and (and (and (and (and (and (and (and (and (and (and (and (and (and (and (and (and (and (and (and (and (and (and (and (and (and (and (and (and (and (and (and (and (and (and (and (and (and (and (and (and (and (and (and (and (and (and (and (and (and (and (and (and (and (and (and (and (and (and (and (and (and (and (and (and (and (and (and (and (and (and (and (and (and (and (and (and (and (and (and (and (and (and (and (and (and (and (and (and (and (and (and (and (and (and (and (and (and (and (and (and (and (and (and (and (and (and (and (and (and (and (and (and (and (and (and (and (and (and (and (and (and (and (and (and (and (and (and (and (and (and (and (and (and (and (and (and (and (and (and (and (and (and (and (and (and (and (and (and (and (and (and (and (and (and (and (and (and (and (and (and (and (and (and (and (and (and (and (and (and (and (and (and (and (and (and (and (and (and (and (and (and (and (and (and (and (and (and (and (and (and (and (and (and (and (and (and (and (and (and (and (and (and (and (and (and (and (and (and (and (and (and (and (and (and (and (and (and (and (and (and (and (and (and (and (and (and (and (and (and (and (and (and (and (and (and (and (and (and (and (and (and (and (and (and (and (and (and (and (and (and (and (and (and (and (and (and (and (and (and (and (and (and (and (and (and (and (and (and (and (and (and (and (and (and (and (and (and (and (and (and (and (and (and (and (and (and (and (and (and (and (and (and (and (and (and (and (and (and (and (and (and (and (and (and (and (and (and (and (and (and (and (and (and (and (and (and (and (and (and (and (and (and (and (and (and (and (and (and (and (and (and (and (and (and (and (and (and (and (and (and (and (and (and (and (and (and (and (and (and (and (and (and (and (and (and (and (and (and (and (and (and (and (and (and (and (and (and (and (and (and (and (and (and (and (and (and (and (and (and (and (and (and (and (and (and (and (and (and (and (and (and (and (and (and (and (and (and (and (and (and (and (and (and (and (and (and (and (and (and (and (and (and (and (and (and (and (and (and (and (and (and (and (and (and (and (and (and (and (and (and (and (and (and (and (and (and (and (and (and (and (and (and (and (or (or P12 ?v_146) ?v_86) (or (or ?v_15 ?v_48) P8)) (or (or ?v_27 ?v_17) ?v_3)) (or (or P21 ?v_23) ?v_34)) (or (or ?v_47 ?v_18) ?v_46)) (or (or P21 P11) ?v_66)) (or (or ?v_93 P1) ?v_29)) (or (or ?v_31 P26) P5)) (or (or P22 ?v_9) ?v_14)) (or (or ?v_20 ?v_4) ?v_6)) (or (or ?v_55 ?v_38) ?v_5)) (or (or ?v_75 ?v_2) ?v_7)) (or (or ?v_8 ?v_3) ?v_89)) (or (or ?v_147 ?v_37) ?v_121)) (or (or ?v_10 ?v_106) ?v_5)) (or (or ?v_6 ?v_53) ?v_41)) (or (or ?v_7 ?v_110) ?v_61)) (or (or ?v_63 ?v_9) ?v_10)) (or (or ?v_115 ?v_13) ?v_12)) (or (or ?v_42 ?v_91) ?v_13)) (or (or P8 ?v_32) ?v_33)) (or (or ?v_35 ?v_28) ?v_10)) (or (or ?v_14 P3) ?v_15)) (or (or ?v_16 ?v_111) ?v_51)) (or (or ?v_57 ?v_19) ?v_20)) (or (or ?v_26 ?v_22) ?v_21)) (or (or ?v_22 ?v_24) P28)) (or (or P2 ?v_123) ?v_62)) (or (or ?v_23 ?v_137) ?v_24)) (or (or ?v_104 ?v_74) ?v_26)) (or (or ?v_143 ?v_73) ?v_24)) (or (or ?v_95 P11) ?v_7)) (or (or ?v_52 ?v_99) ?v_20)) (or (or ?v_80 ?v_2) P4)) (or (or ?v_28 ?v_56) P22)) (or (or ?v_82 ?v_117) ?v_30)) (or (or ?v_122 ?v_32) ?v_24)) (or (or ?v_8 P1) ?v_33)) (or (or P27 ?v_34) ?v_35)) (or (or ?v_40 ?v_37) ?v_38)) (or (or ?v_59 ?v_44) ?v_34)) (or (or P29 ?v_39) ?v_40)) (or (or ?v_41 ?v_54) ?v_29)) (or (or ?v_42 ?v_43) P8)) (or (or ?v_44 ?v_12) ?v_19)) (or (or ?v_50 ?v_71) ?v_88)) (or (or ?v_44 ?v_79) ?v_72)) (or (or ?v_46 P18) ?v_35)) (or (or ?v_124 ?v_47) ?v_42)) (or (or ?v_7 P19) ?v_14)) (or (or ?v_21 ?v_67) ?v_48)) (or (or ?v_116 ?v_50) ?v_51)) (or (or ?v_52 ?v_68) ?v_53)) (or (or ?v_54 ?v_55) ?v_56)) (or (or ?v_98 ?v_57) ?v_58)) (or (or ?v_8 ?v_59) P6)) (or (or ?v_55 ?v_60) ?v_61)) (or (or P27 ?v_62) ?v_63)) (or (or ?v_47 ?v_20) P11)) (or (or ?v_15 P21) ?v_64)) (or (or ?v_34 ?v_17) ?v_94)) (or (or ?v_54 ?v_10) ?v_51)) (or (or ?v_64 ?v_107) P29)) (or (or P20 ?v_66) ?v_7)) (or (or ?v_90 ?v_68) ?v_35)) (or (or ?v_69 ?v_70) P29)) (or (or ?v_51 ?v_34) ?v_85)) (or (or ?v_10 ?v_10) ?v_12)) (or (or ?v_64 P9) ?v_71)) (or (or ?v_72 ?v_73) P6)) (or (or ?v_30 ?v_73) ?v_74)) (or (or P29 P24) ?v_60)) (or (or ?v_33 ?v_76) ?v_75)) (or (or ?v_96 ?v_84) ?v_10)) (or (or ?v_4 P4) ?v_77)) (or (or ?v_131 ?v_57) ?v_50)) (or (or ?v_103 ?v_79) ?v_40)) (or (or P27 ?v_100) P21)) (or (or ?v_119 ?v_66) ?v_75)) (or (or ?v_142 ?v_52) ?v_140)) (or (or ?v_72 ?v_22) ?v_15)) (or (or ?v_67 ?v_80) ?v_75)) (or (or ?v_10 ?v_125) ?v_81)) (or (or ?v_83 ?v_28) ?v_61)) (or (or ?v_9 ?v_70) ?v_83)) (or (or ?v_10 P22) ?v_27)) (or (or ?v_84 P28) ?v_28)) (or (or ?v_101 ?v_15) ?v_85)) (or (or ?v_86 ?v_87) ?v_88)) (or (or ?v_2 ?v_89) ?v_109)) (or (or ?v_90 ?v_91) ?v_29)) (or (or ?v_9 ?v_92) ?v_93)) (or (or ?v_144 ?v_40) ?v_94)) (or (or ?v_42 ?v_44) ?v_134)) (or (or ?v_74 P22) ?v_23)) (or (or ?v_133 ?v_18) ?v_96)) (or (or P27 ?v_38) ?v_48)) (or (or ?v_97 ?v_6) ?v_98)) (or (or ?v_127 ?v_99) ?v_138)) (or (or ?v_43 ?v_101) ?v_24)) (or (or ?v_2 ?v_120) ?v_91)) (or (or ?v_62 ?v_39) ?v_37)) (or (or ?v_102 P3) ?v_39)) (or (or ?v_32 ?v_113) ?v_87)) (or (or ?v_74 ?v_54) ?v_4)) (or (or ?v_76 ?v_77) ?v_50)) (or (or ?v_4 ?v_136) ?v_21)) (or (or ?v_105 ?v_57) ?v_99)) (or (or ?v_37 ?v_106) ?v_73)) (or (or ?v_24 ?v_3) ?v_58)) (or ?v_114 P24)) (or (or ?v_17 ?v_108) ?v_24)) (or (or ?v_43 ?v_4) ?v_47)) (or (or ?v_18 ?v_43) ?v_152)) (or (or ?v_59 ?v_82) ?v_24)) (or (or ?v_2 ?v_95) ?v_13)) (or (or ?v_20 P5) ?v_77)) (or (or ?v_5 P14) ?v_8)) (or (or ?v_14 ?v_83) ?v_88)) (or (or ?v_84 ?v_96) ?v_63)) (or (or P24 ?v_109) P18)) (or (or ?v_50 ?v_85) ?v_47)) (or (or ?v_29 ?v_118) ?v_88)) (or (or ?v_86 ?v_111) ?v_31)) (or (or ?v_35 ?v_34) ?v_58)) (or (or ?v_106 ?v_33) ?v_69)) (or (or ?v_84 ?v_69) ?v_28)) (or (or ?v_69 ?v_109) ?v_112)) (or (or ?v_130 P2) ?v_91)) (or (or ?v_80 ?v_86) ?v_113)) (or (or ?v_71 P1) ?v_100)) (or (or P5 P18) ?v_85)) (or (or P8 ?v_88) ?v_35)) (or (or P14 ?v_105) ?v_79)) (or (or ?v_56 ?v_26) P1)) (or ?v_114 ?v_73)) (or (or ?v_4 P27) ?v_3)) (or (or ?v_109 ?v_107) ?v_115)) (or (or ?v_72 ?v_24) P16)) (or (or ?v_57 ?v_6) ?v_157)) (or (or ?v_20 ?v_47) ?v_4)) (or (or ?v_148 ?v_117) ?v_96)) (or (or ?v_118 P25) ?v_58)) (or (or ?v_54 ?v_119) ?v_55)) (or (or ?v_59 ?v_132) ?v_112)) (or (or P5 ?v_5) P14)) (or (or ?v_61 P1) P18)) (or (or ?v_59 ?v_19) ?v_120)) (or (or ?v_121 ?v_91) ?v_81)) (or (or P18 ?v_122) ?v_91)) (or (or ?v_46 ?v_100) ?v_35)) (or (or ?v_150 P23) ?v_124)) (or (or ?v_125 ?v_112) ?v_17)) (or (or ?v_99 ?v_12) ?v_88)) (or (or P6 ?v_31) ?v_69)) (or (or (not ?v_55) ?v_68) ?v_118)) (or (or ?v_51 ?v_79) ?v_88)) (or (or ?v_113 ?v_126) ?v_110)) (or (or ?v_81 ?v_151) ?v_119)) (or (or P7 ?v_115) P20)) (or (or ?v_113 ?v_26) ?v_67)) (or (or ?v_112 ?v_67) ?v_61)) (or (or ?v_31 P13) ?v_50)) (or (or ?v_51 ?v_127) ?v_72)) (or ?v_159 ?v_91)) (or (or ?v_89 ?v_21) ?v_54)) (or (or ?v_106 ?v_123) ?v_43)) (or (or ?v_21 P19) ?v_139)) (or (or ?v_111 P22) ?v_44)) (or (or ?v_4 ?v_67) ?v_128)) (or (or ?v_30 ?v_129) ?v_130)) (or (or ?v_44 P14) P23)) (or (or P10 ?v_9) ?v_145)) (or (or ?v_33 ?v_56) ?v_132)) (or (or ?v_27 ?v_115) ?v_149)) (or (or ?v_93 ?v_80) ?v_91)) (or (or ?v_88 ?v_133) ?v_74)) (or (or P10 ?v_39) ?v_125)) (or (or ?v_4 P12) ?v_54)) (or (or P25 ?v_59) ?v_90)) (or (or ?v_39 ?v_38) ?v_134)) (or (or ?v_135 ?v_4) ?v_55)) (or (or ?v_136 ?v_39) ?v_79)) (or (or ?v_110 ?v_137) ?v_138)) (or (or ?v_46 ?v_128) ?v_69)) (or (or ?v_16 ?v_137) ?v_29)) (or (or ?v_131 ?v_74) ?v_88)) (or (or ?v_10 ?v_55) ?v_82)) (or (or ?v_93 ?v_14) ?v_109)) (or (or ?v_80 ?v_111) P28)) (or (or P16 P23) ?v_84)) (or (or ?v_110 ?v_79) ?v_139)) (or (or ?v_140 ?v_54) ?v_28)) (or (or ?v_141 ?v_2) ?v_80)) (or (or P8 P17) ?v_19)) (or (or ?v_110 P27) ?v_100)) (or (or ?v_3 ?v_72) ?v_69)) (or (or P6 ?v_17) ?v_26)) (or (or ?v_17 P12) ?v_13)) (or (or P22 ?v_48) ?v_102)) (or (or ?v_69 P23) ?v_56)) (or (or P1 ?v_109) ?v_17)) (or (or ?v_61 P9) ?v_118)) (or (or ?v_87 ?v_26) ?v_85)) (or (or ?v_89 P6) ?v_5)) (or (or ?v_136 ?v_85) ?v_109)) (or (or ?v_69 ?v_118) ?v_141)) (or (or ?v_31 ?v_97) P17)) (or (or ?v_142 ?v_22) ?v_57)) (or (or ?v_23 ?v_66) ?v_143)) (or (or ?v_9 P5) P23)) (or (or ?v_111 P18) ?v_119)) (or (or ?v_26 ?v_125) ?v_55)) (or (or ?v_17 ?v_94) P14)) (or (or ?v_38 P23) ?v_47)) (or (or ?v_105 ?v_74) ?v_52)) (or (or ?v_144 P27) ?v_94)) (or (or ?v_50 ?v_9) ?v_77)) (or (or ?v_106 ?v_63) ?v_121)) (or (or P23 P20) ?v_48)) (or (or ?v_124 P1) ?v_141)) (or (or ?v_82 ?v_13) P4)) (or (or ?v_144 P11) P4)) (or (or ?v_110 ?v_46) P10)) (or (or ?v_161 ?v_8) ?v_20)) (or (or ?v_86 ?v_122) ?v_125)) (or (or ?v_107 ?v_31) ?v_63)) (or (or ?v_73 ?v_44) ?v_10)) (or (or ?v_66 ?v_94) ?v_141)) (or (or ?v_33 ?v_137) ?v_94)) (or (or ?v_115 ?v_94) ?v_37)) (or (or ?v_126 ?v_144) ?v_118)) (or (or ?v_128 ?v_112) ?v_27)) (or (or P5 ?v_113) P29)) (or (or ?v_50 ?v_99) ?v_145)) (or (or P1 ?v_144) ?v_146)) (or (or ?v_41 ?v_118) ?v_43)) (or (or P11 ?v_40) ?v_75)) (or (or ?v_19 ?v_43) ?v_40)) (or (or ?v_93 ?v_96) ?v_90)) (or (or P24 ?v_28) ?v_47)) (or (or ?v_147 ?v_148) ?v_21)) (or (or ?v_147 ?v_19) ?v_23)) (or (or ?v_90 ?v_149) P29)) (or (or ?v_43 ?v_28) ?v_109)) (or (or P17 ?v_120) P29)) (or (or ?v_62 ?v_23) ?v_138)) (or (or P22 ?v_150) ?v_38)) (or (or P24 ?v_9) ?v_94)) (or (or ?v_119 ?v_143) ?v_97)) (or (or ?v_117 P23) ?v_148)) (or (or ?v_39 ?v_5) ?v_48)) (or (or ?v_18 P16) P27)) (or (or ?v_136 ?v_48) ?v_149)) (or (or ?v_10 ?v_123) P17)) (or (or ?v_68 ?v_90) P16)) (or (or ?v_53 P26) ?v_66)) (or (or P2 P22) ?v_38)) (or (or ?v_151 ?v_23) P18)) (or (or ?v_94 P25) ?v_33)) (or (or ?v_72 ?v_121) ?v_10)) (or (or ?v_127 ?v_152) ?v_79)) (or ?v_158 P22)) (or (or ?v_111 ?v_117) ?v_27)) (or (or ?v_98 ?v_81) ?v_142)) (or (or ?v_155 ?v_42) ?v_153)) (or (or ?v_52 ?v_104) P4)) (or (or ?v_51 ?v_143) ?v_127)) (or (or P18 ?v_153) ?v_7)) (or ?v_156 ?v_84)) (or (or ?v_131 ?v_88) ?v_2)) (or (or P2 ?v_21) P23)) (or (or P16 ?v_4) ?v_154)) (or (or ?v_40 ?v_60) ?v_105)) (or (or ?v_151 ?v_13) ?v_19)) (or (or ?v_142 ?v_155) ?v_15)) (or (or ?v_118 ?v_95) ?v_112)) (or (or ?v_20 ?v_70) ?v_103)) (or (or P6 ?v_50) P8)) (or (or ?v_81 ?v_31) ?v_76)) (or (or ?v_86 P3) ?v_4)) (or (or ?v_99 ?v_81) ?v_121)) (or (or ?v_81 ?v_62) P27)) (or (or ?v_71 ?v_61) P10)) (or (or ?v_74 ?v_62) P13)) (or (or ?v_44 ?v_56) ?v_24)) (or (or ?v_137 P14) ?v_88)) (or (or ?v_4 ?v_120) ?v_134)) (or (or ?v_18 ?v_74) ?v_108)) (or (or ?v_144 ?v_17) ?v_59)) (or (or ?v_118 ?v_61) ?v_138)) (or (or ?v_140 ?v_20) ?v_98)) (or (or ?v_135 ?v_80) ?v_18)) (or (or ?v_107 P29) ?v_73)) (or (or ?v_151 ?v_96) ?v_134)) (or (or ?v_35 ?v_14) ?v_80)) (or (or ?v_22 ?v_60) ?v_153)) (or ?v_160 ?v_106)) (or (or P28 ?v_60) ?v_144)) (or (or ?v_152 ?v_60) P6)) (or ?v_156 ?v_100)) (or (or ?v_122 P26) ?v_143)) (or (or ?v_38 ?v_124) ?v_26)) (or (or ?v_150 ?v_29) P5)) (or (or ?v_73 ?v_33) ?v_32)) (or (or P29 ?v_131) ?v_82)) (or (or ?v_149 ?v_57) ?v_48)) (or (or ?v_41 ?v_147) ?v_16)) (or (or ?v_14 ?v_89) P5)) (or (or P0 ?v_141) ?v_46)) (or (or P10 ?v_43) ?v_21)) (or (or ?v_26 ?v_123) ?v_151)) (or (or ?v_19 ?v_4) ?v_108)) (or (or ?v_7 P9) ?v_137)) (or (or ?v_69 ?v_37) ?v_150)) (or (or ?v_123 ?v_147) ?v_9)) (or (or ?v_139 P10) ?v_59)) (or (or ?v_9 ?v_41) ?v_64)) (or (or P19 P8) ?v_87)) (or (or P4 ?v_133) ?v_148)) (or (or P13 ?v_118) ?v_157)) (or (or ?v_103 ?v_66) ?v_106)) (or (or P18 ?v_74) ?v_43)) (or (or ?v_6 ?v_38) ?v_107)) (or (or P16 P1) P8)) (or (or ?v_110 ?v_30) ?v_124)) (or (or P25 ?v_137) ?v_91)) (or (or ?v_7 ?v_14) P8)) (or (or ?v_32 ?v_53) ?v_145)) (or (or ?v_105 ?v_92) ?v_136)) (or (or ?v_38 ?v_22) ?v_28)) (or (or ?v_148 P20) ?v_127)) (or (or ?v_3 P4) P29)) (or (or P19 ?v_46) P6)) (or (or ?v_32 P1) ?v_140)) (or (or ?v_87 ?v_73) ?v_23)) (or (or ?v_135 ?v_152) ?v_48)) (or (or ?v_40 ?v_124) P26)) (or ?v_158 P0)) (or (or ?v_53 ?v_116) ?v_55)) (or (or P23 ?v_152) ?v_135)) (or (or ?v_27 ?v_83) ?v_155)) (or (or ?v_35 ?v_84) P14)) (or (or P20 ?v_136) ?v_61)) (or (or P28 P25) ?v_141)) (or (or ?v_103 ?v_136) ?v_69)) (or (or ?v_142 ?v_75) ?v_43)) (or (or ?v_123 ?v_109) ?v_41)) (or (or ?v_46 ?v_146) ?v_100)) (or (or P21 ?v_70) ?v_119)) (or (or P20 P21) ?v_30)) (or (or ?v_30 ?v_117) ?v_110)) (or (or ?v_74 P4) ?v_121)) (or (or P18 ?v_80) ?v_39)) (or (or ?v_19 ?v_116) P9)) (or (or ?v_37 ?v_74) ?v_70)) (or (or ?v_51 ?v_148) P18)) (or (or ?v_12 ?v_91) ?v_8)) (or (or ?v_134 ?v_67) ?v_19)) (or (or ?v_82 ?v_98) ?v_37)) (or (or P19 ?v_47) ?v_93)) (or (or ?v_97 ?v_125) ?v_129)) (or (or ?v_115 ?v_141) ?v_9)) (or ?v_159 ?v_3)) (or (or ?v_14 ?v_88) ?v_111)) (or (or P16 ?v_151) P18)) (or (or P16 ?v_112) ?v_39)) (or (or ?v_143 ?v_50) ?v_18)) (or (or ?v_70 ?v_107) ?v_151)) (or (or ?v_109 ?v_13) ?v_69)) (or (or ?v_72 ?v_4) ?v_153)) (or (or ?v_154 ?v_127) ?v_2)) (or (or ?v_73 P12) ?v_137)) (or (or P18 ?v_17) ?v_39)) (or (or ?v_148 P24) ?v_52)) (or (or ?v_70 ?v_83) ?v_149)) (or (or ?v_69 ?v_60) ?v_121)) (or (or ?v_63 ?v_117) ?v_151)) (or (or P26 ?v_56) ?v_155)) (or (or ?v_2 ?v_146) ?v_40)) (or (or ?v_14 ?v_8) ?v_46)) (or (or P3 P10) ?v_152)) (or (or ?v_14 ?v_121) ?v_75)) (or (or P2 ?v_150) ?v_85)) (or (or ?v_100 ?v_87) ?v_154)) (or (or P11 ?v_85) ?v_144)) (or (or ?v_143 ?v_151) ?v_128)) (or (or ?v_66 ?v_141) ?v_43)) (or (or ?v_59 ?v_57) ?v_85)) (or (or ?v_22 ?v_142) ?v_101)) (or (or ?v_7 ?v_43) ?v_34)) (or (or ?v_133 ?v_110) ?v_69)) (or (or ?v_68 ?v_84) ?v_70)) (or (or ?v_126 ?v_48) ?v_71)) (or (or ?v_157 ?v_73) ?v_85)) (or (or ?v_121 P13) ?v_53)) (or (or ?v_53 ?v_147) ?v_20)) (or (or ?v_153 ?v_147) ?v_16)) (or ?v_160 ?v_123)) (or (or P11 ?v_110) ?v_31)) (or (or ?v_6 ?v_61) P19)) (or (or ?v_111 ?v_77) ?v_112)) (or (or ?v_121 ?v_95) ?v_58)) (or (or P12 P14) ?v_149)) (or (or ?v_46 ?v_135) ?v_38)) (or (or ?v_93 ?v_67) ?v_26)) (or (or ?v_39 ?v_94) ?v_102)) (or (or ?v_161 ?v_133) ?v_148)) (or (or ?v_69 ?v_16) ?v_127)) (or (or ?v_144 P3) ?v_40)) (or (or ?v_143 ?v_140) ?v_93)) (or (or ?v_127 P10) P21)) (or (or P1 ?v_154) P19)) (or (or ?v_140 ?v_76) ?v_10)) (or (or ?v_126 ?v_5) ?v_154)) (or (or ?v_122 ?v_99) ?v_61)) (or (or P4 P12) ?v_42)) (or (or P4 P1) ?v_150)) (or (or P1 P23) ?v_59)) (or (or ?v_27 ?v_14) ?v_69)) (or (or ?v_15 ?v_2) ?v_41)) (or (or ?v_96 P28) ?v_30)) (or (or ?v_119 ?v_21) ?v_46)) (or (or ?v_157 ?v_119) ?v_22)) (or (or ?v_141 ?v_56) ?v_82)) (or (or ?v_136 ?v_24) ?v_46)) (or (or ?v_28 ?v_63) ?v_129)) (or (or ?v_98 ?v_60) ?v_124)) (or (or P12 P18) ?v_9)) (or (or ?v_93 ?v_77) P11)) (or (or ?v_139 P18) ?v_9)) (or (or P28 ?v_44) ?v_149)) (or (or ?v_87 ?v_72) ?v_69)) (or (or P4 ?v_120) ?v_5)) (or (or P4 ?v_28) ?v_66)) (or (or ?v_157 P21) ?v_147)) (or (or ?v_30 ?v_88) ?v_139)) (or (or ?v_48 ?v_38) ?v_10)) (or (or ?v_26 ?v_96) ?v_54)) (or (or ?v_147 P8) ?v_135)) (or (or ?v_129 ?v_92) P10)) (or (or ?v_15 ?v_83) (not ?v_44))) (or (or P15 ?v_76) ?v_121)) (or (or ?v_53 ?v_77) ?v_88)) (or (or ?v_66 ?v_9) ?v_89)) (or (or ?v_97 ?v_161) ?v_53)) (or (or ?v_50 ?v_54) ?v_20)) (or (or ?v_118 ?v_33) ?v_69)) (or (or ?v_67 P8) ?v_136)) (or (or ?v_74 ?v_48) ?v_105))))))))))))))))))))))))))
(check-sat)
(exit)
